p cnf 7230 17
-3248 -3266 3695 0
3266 -3695 0
-3270 -3276 -3700 0
-3252 -3256 -3696 0
3270 -3701 0
3252 -3697 0
3700 3701 0
3698 3699 0
3264 -3699 0
-3264 -3698 0
3696 3697 0
3276 -3701 0
3256 -3697 0
3284 -3703 0
3278 -3703 0
3694 3695 0
-3694 -3695 0
